c *********************************
c * Circuit generated by BenCGen
c *
c * Parity_299
c *
c * Ports with 1 gate(s): 1
c * Ports with 2 gate(s): 299
c * Total gates: 300
c *********************************
p cnf 599 1197
1 302 0
-1 -302 0
1 -301 0
302 -301 0
-1 -302 301 0
1 2 -303 0
-1 2 303 0
1 -2 303 0
-1 -2 -303 0
3 4 -304 0
-3 4 304 0
3 -4 304 0
-3 -4 -304 0
5 6 -305 0
-5 6 305 0
5 -6 305 0
-5 -6 -305 0
7 8 -306 0
-7 8 306 0
7 -8 306 0
-7 -8 -306 0
9 10 -307 0
-9 10 307 0
9 -10 307 0
-9 -10 -307 0
11 12 -308 0
-11 12 308 0
11 -12 308 0
-11 -12 -308 0
13 14 -309 0
-13 14 309 0
13 -14 309 0
-13 -14 -309 0
15 16 -310 0
-15 16 310 0
15 -16 310 0
-15 -16 -310 0
17 18 -311 0
-17 18 311 0
17 -18 311 0
-17 -18 -311 0
19 20 -312 0
-19 20 312 0
19 -20 312 0
-19 -20 -312 0
21 22 -313 0
-21 22 313 0
21 -22 313 0
-21 -22 -313 0
23 24 -314 0
-23 24 314 0
23 -24 314 0
-23 -24 -314 0
25 26 -315 0
-25 26 315 0
25 -26 315 0
-25 -26 -315 0
27 28 -316 0
-27 28 316 0
27 -28 316 0
-27 -28 -316 0
29 30 -317 0
-29 30 317 0
29 -30 317 0
-29 -30 -317 0
31 32 -318 0
-31 32 318 0
31 -32 318 0
-31 -32 -318 0
33 34 -319 0
-33 34 319 0
33 -34 319 0
-33 -34 -319 0
35 36 -320 0
-35 36 320 0
35 -36 320 0
-35 -36 -320 0
37 38 -321 0
-37 38 321 0
37 -38 321 0
-37 -38 -321 0
39 40 -322 0
-39 40 322 0
39 -40 322 0
-39 -40 -322 0
41 42 -323 0
-41 42 323 0
41 -42 323 0
-41 -42 -323 0
43 44 -324 0
-43 44 324 0
43 -44 324 0
-43 -44 -324 0
45 46 -325 0
-45 46 325 0
45 -46 325 0
-45 -46 -325 0
47 48 -326 0
-47 48 326 0
47 -48 326 0
-47 -48 -326 0
49 50 -327 0
-49 50 327 0
49 -50 327 0
-49 -50 -327 0
51 52 -328 0
-51 52 328 0
51 -52 328 0
-51 -52 -328 0
53 54 -329 0
-53 54 329 0
53 -54 329 0
-53 -54 -329 0
55 56 -330 0
-55 56 330 0
55 -56 330 0
-55 -56 -330 0
57 58 -331 0
-57 58 331 0
57 -58 331 0
-57 -58 -331 0
59 60 -332 0
-59 60 332 0
59 -60 332 0
-59 -60 -332 0
61 62 -333 0
-61 62 333 0
61 -62 333 0
-61 -62 -333 0
63 64 -334 0
-63 64 334 0
63 -64 334 0
-63 -64 -334 0
65 66 -335 0
-65 66 335 0
65 -66 335 0
-65 -66 -335 0
67 68 -336 0
-67 68 336 0
67 -68 336 0
-67 -68 -336 0
69 70 -337 0
-69 70 337 0
69 -70 337 0
-69 -70 -337 0
71 72 -338 0
-71 72 338 0
71 -72 338 0
-71 -72 -338 0
73 74 -339 0
-73 74 339 0
73 -74 339 0
-73 -74 -339 0
75 76 -340 0
-75 76 340 0
75 -76 340 0
-75 -76 -340 0
77 78 -341 0
-77 78 341 0
77 -78 341 0
-77 -78 -341 0
79 80 -342 0
-79 80 342 0
79 -80 342 0
-79 -80 -342 0
81 82 -343 0
-81 82 343 0
81 -82 343 0
-81 -82 -343 0
83 84 -344 0
-83 84 344 0
83 -84 344 0
-83 -84 -344 0
85 86 -345 0
-85 86 345 0
85 -86 345 0
-85 -86 -345 0
87 88 -346 0
-87 88 346 0
87 -88 346 0
-87 -88 -346 0
89 90 -347 0
-89 90 347 0
89 -90 347 0
-89 -90 -347 0
91 92 -348 0
-91 92 348 0
91 -92 348 0
-91 -92 -348 0
93 94 -349 0
-93 94 349 0
93 -94 349 0
-93 -94 -349 0
95 96 -350 0
-95 96 350 0
95 -96 350 0
-95 -96 -350 0
97 98 -351 0
-97 98 351 0
97 -98 351 0
-97 -98 -351 0
99 100 -352 0
-99 100 352 0
99 -100 352 0
-99 -100 -352 0
101 102 -353 0
-101 102 353 0
101 -102 353 0
-101 -102 -353 0
103 104 -354 0
-103 104 354 0
103 -104 354 0
-103 -104 -354 0
105 106 -355 0
-105 106 355 0
105 -106 355 0
-105 -106 -355 0
107 108 -356 0
-107 108 356 0
107 -108 356 0
-107 -108 -356 0
109 110 -357 0
-109 110 357 0
109 -110 357 0
-109 -110 -357 0
111 112 -358 0
-111 112 358 0
111 -112 358 0
-111 -112 -358 0
113 114 -359 0
-113 114 359 0
113 -114 359 0
-113 -114 -359 0
115 116 -360 0
-115 116 360 0
115 -116 360 0
-115 -116 -360 0
117 118 -361 0
-117 118 361 0
117 -118 361 0
-117 -118 -361 0
119 120 -362 0
-119 120 362 0
119 -120 362 0
-119 -120 -362 0
121 122 -363 0
-121 122 363 0
121 -122 363 0
-121 -122 -363 0
123 124 -364 0
-123 124 364 0
123 -124 364 0
-123 -124 -364 0
125 126 -365 0
-125 126 365 0
125 -126 365 0
-125 -126 -365 0
127 128 -366 0
-127 128 366 0
127 -128 366 0
-127 -128 -366 0
129 130 -367 0
-129 130 367 0
129 -130 367 0
-129 -130 -367 0
131 132 -368 0
-131 132 368 0
131 -132 368 0
-131 -132 -368 0
133 134 -369 0
-133 134 369 0
133 -134 369 0
-133 -134 -369 0
135 136 -370 0
-135 136 370 0
135 -136 370 0
-135 -136 -370 0
137 138 -371 0
-137 138 371 0
137 -138 371 0
-137 -138 -371 0
139 140 -372 0
-139 140 372 0
139 -140 372 0
-139 -140 -372 0
141 142 -373 0
-141 142 373 0
141 -142 373 0
-141 -142 -373 0
143 144 -374 0
-143 144 374 0
143 -144 374 0
-143 -144 -374 0
145 146 -375 0
-145 146 375 0
145 -146 375 0
-145 -146 -375 0
147 148 -376 0
-147 148 376 0
147 -148 376 0
-147 -148 -376 0
149 150 -377 0
-149 150 377 0
149 -150 377 0
-149 -150 -377 0
151 152 -378 0
-151 152 378 0
151 -152 378 0
-151 -152 -378 0
153 154 -379 0
-153 154 379 0
153 -154 379 0
-153 -154 -379 0
155 156 -380 0
-155 156 380 0
155 -156 380 0
-155 -156 -380 0
157 158 -381 0
-157 158 381 0
157 -158 381 0
-157 -158 -381 0
159 160 -382 0
-159 160 382 0
159 -160 382 0
-159 -160 -382 0
161 162 -383 0
-161 162 383 0
161 -162 383 0
-161 -162 -383 0
163 164 -384 0
-163 164 384 0
163 -164 384 0
-163 -164 -384 0
165 166 -385 0
-165 166 385 0
165 -166 385 0
-165 -166 -385 0
167 168 -386 0
-167 168 386 0
167 -168 386 0
-167 -168 -386 0
169 170 -387 0
-169 170 387 0
169 -170 387 0
-169 -170 -387 0
171 172 -388 0
-171 172 388 0
171 -172 388 0
-171 -172 -388 0
173 174 -389 0
-173 174 389 0
173 -174 389 0
-173 -174 -389 0
175 176 -390 0
-175 176 390 0
175 -176 390 0
-175 -176 -390 0
177 178 -391 0
-177 178 391 0
177 -178 391 0
-177 -178 -391 0
179 180 -392 0
-179 180 392 0
179 -180 392 0
-179 -180 -392 0
181 182 -393 0
-181 182 393 0
181 -182 393 0
-181 -182 -393 0
183 184 -394 0
-183 184 394 0
183 -184 394 0
-183 -184 -394 0
185 186 -395 0
-185 186 395 0
185 -186 395 0
-185 -186 -395 0
187 188 -396 0
-187 188 396 0
187 -188 396 0
-187 -188 -396 0
189 190 -397 0
-189 190 397 0
189 -190 397 0
-189 -190 -397 0
191 192 -398 0
-191 192 398 0
191 -192 398 0
-191 -192 -398 0
193 194 -399 0
-193 194 399 0
193 -194 399 0
-193 -194 -399 0
195 196 -400 0
-195 196 400 0
195 -196 400 0
-195 -196 -400 0
197 198 -401 0
-197 198 401 0
197 -198 401 0
-197 -198 -401 0
199 200 -402 0
-199 200 402 0
199 -200 402 0
-199 -200 -402 0
201 202 -403 0
-201 202 403 0
201 -202 403 0
-201 -202 -403 0
203 204 -404 0
-203 204 404 0
203 -204 404 0
-203 -204 -404 0
205 206 -405 0
-205 206 405 0
205 -206 405 0
-205 -206 -405 0
207 208 -406 0
-207 208 406 0
207 -208 406 0
-207 -208 -406 0
209 210 -407 0
-209 210 407 0
209 -210 407 0
-209 -210 -407 0
211 212 -408 0
-211 212 408 0
211 -212 408 0
-211 -212 -408 0
213 214 -409 0
-213 214 409 0
213 -214 409 0
-213 -214 -409 0
215 216 -410 0
-215 216 410 0
215 -216 410 0
-215 -216 -410 0
217 218 -411 0
-217 218 411 0
217 -218 411 0
-217 -218 -411 0
219 220 -412 0
-219 220 412 0
219 -220 412 0
-219 -220 -412 0
221 222 -413 0
-221 222 413 0
221 -222 413 0
-221 -222 -413 0
223 224 -414 0
-223 224 414 0
223 -224 414 0
-223 -224 -414 0
225 226 -415 0
-225 226 415 0
225 -226 415 0
-225 -226 -415 0
227 228 -416 0
-227 228 416 0
227 -228 416 0
-227 -228 -416 0
229 230 -417 0
-229 230 417 0
229 -230 417 0
-229 -230 -417 0
231 232 -418 0
-231 232 418 0
231 -232 418 0
-231 -232 -418 0
233 234 -419 0
-233 234 419 0
233 -234 419 0
-233 -234 -419 0
235 236 -420 0
-235 236 420 0
235 -236 420 0
-235 -236 -420 0
237 238 -421 0
-237 238 421 0
237 -238 421 0
-237 -238 -421 0
239 240 -422 0
-239 240 422 0
239 -240 422 0
-239 -240 -422 0
241 242 -423 0
-241 242 423 0
241 -242 423 0
-241 -242 -423 0
243 244 -424 0
-243 244 424 0
243 -244 424 0
-243 -244 -424 0
245 246 -425 0
-245 246 425 0
245 -246 425 0
-245 -246 -425 0
247 248 -426 0
-247 248 426 0
247 -248 426 0
-247 -248 -426 0
249 250 -427 0
-249 250 427 0
249 -250 427 0
-249 -250 -427 0
251 252 -428 0
-251 252 428 0
251 -252 428 0
-251 -252 -428 0
253 254 -429 0
-253 254 429 0
253 -254 429 0
-253 -254 -429 0
255 256 -430 0
-255 256 430 0
255 -256 430 0
-255 -256 -430 0
257 258 -431 0
-257 258 431 0
257 -258 431 0
-257 -258 -431 0
259 260 -432 0
-259 260 432 0
259 -260 432 0
-259 -260 -432 0
261 262 -433 0
-261 262 433 0
261 -262 433 0
-261 -262 -433 0
263 264 -434 0
-263 264 434 0
263 -264 434 0
-263 -264 -434 0
265 266 -435 0
-265 266 435 0
265 -266 435 0
-265 -266 -435 0
267 268 -436 0
-267 268 436 0
267 -268 436 0
-267 -268 -436 0
269 270 -437 0
-269 270 437 0
269 -270 437 0
-269 -270 -437 0
271 272 -438 0
-271 272 438 0
271 -272 438 0
-271 -272 -438 0
273 274 -439 0
-273 274 439 0
273 -274 439 0
-273 -274 -439 0
275 276 -440 0
-275 276 440 0
275 -276 440 0
-275 -276 -440 0
277 278 -441 0
-277 278 441 0
277 -278 441 0
-277 -278 -441 0
279 280 -442 0
-279 280 442 0
279 -280 442 0
-279 -280 -442 0
281 282 -443 0
-281 282 443 0
281 -282 443 0
-281 -282 -443 0
283 284 -444 0
-283 284 444 0
283 -284 444 0
-283 -284 -444 0
285 286 -445 0
-285 286 445 0
285 -286 445 0
-285 -286 -445 0
287 288 -446 0
-287 288 446 0
287 -288 446 0
-287 -288 -446 0
289 290 -447 0
-289 290 447 0
289 -290 447 0
-289 -290 -447 0
291 292 -448 0
-291 292 448 0
291 -292 448 0
-291 -292 -448 0
293 294 -449 0
-293 294 449 0
293 -294 449 0
-293 -294 -449 0
295 296 -450 0
-295 296 450 0
295 -296 450 0
-295 -296 -450 0
297 298 -451 0
-297 298 451 0
297 -298 451 0
-297 -298 -451 0
303 304 -452 0
-303 304 452 0
303 -304 452 0
-303 -304 -452 0
305 306 -453 0
-305 306 453 0
305 -306 453 0
-305 -306 -453 0
307 308 -454 0
-307 308 454 0
307 -308 454 0
-307 -308 -454 0
309 310 -455 0
-309 310 455 0
309 -310 455 0
-309 -310 -455 0
311 312 -456 0
-311 312 456 0
311 -312 456 0
-311 -312 -456 0
313 314 -457 0
-313 314 457 0
313 -314 457 0
-313 -314 -457 0
315 316 -458 0
-315 316 458 0
315 -316 458 0
-315 -316 -458 0
317 318 -459 0
-317 318 459 0
317 -318 459 0
-317 -318 -459 0
319 320 -460 0
-319 320 460 0
319 -320 460 0
-319 -320 -460 0
321 322 -461 0
-321 322 461 0
321 -322 461 0
-321 -322 -461 0
323 324 -462 0
-323 324 462 0
323 -324 462 0
-323 -324 -462 0
325 326 -463 0
-325 326 463 0
325 -326 463 0
-325 -326 -463 0
327 328 -464 0
-327 328 464 0
327 -328 464 0
-327 -328 -464 0
329 330 -465 0
-329 330 465 0
329 -330 465 0
-329 -330 -465 0
331 332 -466 0
-331 332 466 0
331 -332 466 0
-331 -332 -466 0
333 334 -467 0
-333 334 467 0
333 -334 467 0
-333 -334 -467 0
335 336 -468 0
-335 336 468 0
335 -336 468 0
-335 -336 -468 0
337 338 -469 0
-337 338 469 0
337 -338 469 0
-337 -338 -469 0
339 340 -470 0
-339 340 470 0
339 -340 470 0
-339 -340 -470 0
341 342 -471 0
-341 342 471 0
341 -342 471 0
-341 -342 -471 0
343 344 -472 0
-343 344 472 0
343 -344 472 0
-343 -344 -472 0
345 346 -473 0
-345 346 473 0
345 -346 473 0
-345 -346 -473 0
347 348 -474 0
-347 348 474 0
347 -348 474 0
-347 -348 -474 0
349 350 -475 0
-349 350 475 0
349 -350 475 0
-349 -350 -475 0
351 352 -476 0
-351 352 476 0
351 -352 476 0
-351 -352 -476 0
353 354 -477 0
-353 354 477 0
353 -354 477 0
-353 -354 -477 0
355 356 -478 0
-355 356 478 0
355 -356 478 0
-355 -356 -478 0
357 358 -479 0
-357 358 479 0
357 -358 479 0
-357 -358 -479 0
359 360 -480 0
-359 360 480 0
359 -360 480 0
-359 -360 -480 0
361 362 -481 0
-361 362 481 0
361 -362 481 0
-361 -362 -481 0
363 364 -482 0
-363 364 482 0
363 -364 482 0
-363 -364 -482 0
365 366 -483 0
-365 366 483 0
365 -366 483 0
-365 -366 -483 0
367 368 -484 0
-367 368 484 0
367 -368 484 0
-367 -368 -484 0
369 370 -485 0
-369 370 485 0
369 -370 485 0
-369 -370 -485 0
371 372 -486 0
-371 372 486 0
371 -372 486 0
-371 -372 -486 0
373 374 -487 0
-373 374 487 0
373 -374 487 0
-373 -374 -487 0
375 376 -488 0
-375 376 488 0
375 -376 488 0
-375 -376 -488 0
377 378 -489 0
-377 378 489 0
377 -378 489 0
-377 -378 -489 0
379 380 -490 0
-379 380 490 0
379 -380 490 0
-379 -380 -490 0
381 382 -491 0
-381 382 491 0
381 -382 491 0
-381 -382 -491 0
383 384 -492 0
-383 384 492 0
383 -384 492 0
-383 -384 -492 0
385 386 -493 0
-385 386 493 0
385 -386 493 0
-385 -386 -493 0
387 388 -494 0
-387 388 494 0
387 -388 494 0
-387 -388 -494 0
389 390 -495 0
-389 390 495 0
389 -390 495 0
-389 -390 -495 0
391 392 -496 0
-391 392 496 0
391 -392 496 0
-391 -392 -496 0
393 394 -497 0
-393 394 497 0
393 -394 497 0
-393 -394 -497 0
395 396 -498 0
-395 396 498 0
395 -396 498 0
-395 -396 -498 0
397 398 -499 0
-397 398 499 0
397 -398 499 0
-397 -398 -499 0
399 400 -500 0
-399 400 500 0
399 -400 500 0
-399 -400 -500 0
401 402 -501 0
-401 402 501 0
401 -402 501 0
-401 -402 -501 0
403 404 -502 0
-403 404 502 0
403 -404 502 0
-403 -404 -502 0
405 406 -503 0
-405 406 503 0
405 -406 503 0
-405 -406 -503 0
407 408 -504 0
-407 408 504 0
407 -408 504 0
-407 -408 -504 0
409 410 -505 0
-409 410 505 0
409 -410 505 0
-409 -410 -505 0
411 412 -506 0
-411 412 506 0
411 -412 506 0
-411 -412 -506 0
413 414 -507 0
-413 414 507 0
413 -414 507 0
-413 -414 -507 0
415 416 -508 0
-415 416 508 0
415 -416 508 0
-415 -416 -508 0
417 418 -509 0
-417 418 509 0
417 -418 509 0
-417 -418 -509 0
419 420 -510 0
-419 420 510 0
419 -420 510 0
-419 -420 -510 0
421 422 -511 0
-421 422 511 0
421 -422 511 0
-421 -422 -511 0
423 424 -512 0
-423 424 512 0
423 -424 512 0
-423 -424 -512 0
425 426 -513 0
-425 426 513 0
425 -426 513 0
-425 -426 -513 0
427 428 -514 0
-427 428 514 0
427 -428 514 0
-427 -428 -514 0
429 430 -515 0
-429 430 515 0
429 -430 515 0
-429 -430 -515 0
431 432 -516 0
-431 432 516 0
431 -432 516 0
-431 -432 -516 0
433 434 -517 0
-433 434 517 0
433 -434 517 0
-433 -434 -517 0
435 436 -518 0
-435 436 518 0
435 -436 518 0
-435 -436 -518 0
437 438 -519 0
-437 438 519 0
437 -438 519 0
-437 -438 -519 0
439 440 -520 0
-439 440 520 0
439 -440 520 0
-439 -440 -520 0
441 442 -521 0
-441 442 521 0
441 -442 521 0
-441 -442 -521 0
443 444 -522 0
-443 444 522 0
443 -444 522 0
-443 -444 -522 0
445 446 -523 0
-445 446 523 0
445 -446 523 0
-445 -446 -523 0
447 448 -524 0
-447 448 524 0
447 -448 524 0
-447 -448 -524 0
449 450 -525 0
-449 450 525 0
449 -450 525 0
-449 -450 -525 0
451 299 -526 0
-451 299 526 0
451 -299 526 0
-451 -299 -526 0
452 453 -527 0
-452 453 527 0
452 -453 527 0
-452 -453 -527 0
454 455 -528 0
-454 455 528 0
454 -455 528 0
-454 -455 -528 0
456 457 -529 0
-456 457 529 0
456 -457 529 0
-456 -457 -529 0
458 459 -530 0
-458 459 530 0
458 -459 530 0
-458 -459 -530 0
460 461 -531 0
-460 461 531 0
460 -461 531 0
-460 -461 -531 0
462 463 -532 0
-462 463 532 0
462 -463 532 0
-462 -463 -532 0
464 465 -533 0
-464 465 533 0
464 -465 533 0
-464 -465 -533 0
466 467 -534 0
-466 467 534 0
466 -467 534 0
-466 -467 -534 0
468 469 -535 0
-468 469 535 0
468 -469 535 0
-468 -469 -535 0
470 471 -536 0
-470 471 536 0
470 -471 536 0
-470 -471 -536 0
472 473 -537 0
-472 473 537 0
472 -473 537 0
-472 -473 -537 0
474 475 -538 0
-474 475 538 0
474 -475 538 0
-474 -475 -538 0
476 477 -539 0
-476 477 539 0
476 -477 539 0
-476 -477 -539 0
478 479 -540 0
-478 479 540 0
478 -479 540 0
-478 -479 -540 0
480 481 -541 0
-480 481 541 0
480 -481 541 0
-480 -481 -541 0
482 483 -542 0
-482 483 542 0
482 -483 542 0
-482 -483 -542 0
484 485 -543 0
-484 485 543 0
484 -485 543 0
-484 -485 -543 0
486 487 -544 0
-486 487 544 0
486 -487 544 0
-486 -487 -544 0
488 489 -545 0
-488 489 545 0
488 -489 545 0
-488 -489 -545 0
490 491 -546 0
-490 491 546 0
490 -491 546 0
-490 -491 -546 0
492 493 -547 0
-492 493 547 0
492 -493 547 0
-492 -493 -547 0
494 495 -548 0
-494 495 548 0
494 -495 548 0
-494 -495 -548 0
496 497 -549 0
-496 497 549 0
496 -497 549 0
-496 -497 -549 0
498 499 -550 0
-498 499 550 0
498 -499 550 0
-498 -499 -550 0
500 501 -551 0
-500 501 551 0
500 -501 551 0
-500 -501 -551 0
502 503 -552 0
-502 503 552 0
502 -503 552 0
-502 -503 -552 0
504 505 -553 0
-504 505 553 0
504 -505 553 0
-504 -505 -553 0
506 507 -554 0
-506 507 554 0
506 -507 554 0
-506 -507 -554 0
508 509 -555 0
-508 509 555 0
508 -509 555 0
-508 -509 -555 0
510 511 -556 0
-510 511 556 0
510 -511 556 0
-510 -511 -556 0
512 513 -557 0
-512 513 557 0
512 -513 557 0
-512 -513 -557 0
514 515 -558 0
-514 515 558 0
514 -515 558 0
-514 -515 -558 0
516 517 -559 0
-516 517 559 0
516 -517 559 0
-516 -517 -559 0
518 519 -560 0
-518 519 560 0
518 -519 560 0
-518 -519 -560 0
520 521 -561 0
-520 521 561 0
520 -521 561 0
-520 -521 -561 0
522 523 -562 0
-522 523 562 0
522 -523 562 0
-522 -523 -562 0
524 525 -563 0
-524 525 563 0
524 -525 563 0
-524 -525 -563 0
527 528 -564 0
-527 528 564 0
527 -528 564 0
-527 -528 -564 0
529 530 -565 0
-529 530 565 0
529 -530 565 0
-529 -530 -565 0
531 532 -566 0
-531 532 566 0
531 -532 566 0
-531 -532 -566 0
533 534 -567 0
-533 534 567 0
533 -534 567 0
-533 -534 -567 0
535 536 -568 0
-535 536 568 0
535 -536 568 0
-535 -536 -568 0
537 538 -569 0
-537 538 569 0
537 -538 569 0
-537 -538 -569 0
539 540 -570 0
-539 540 570 0
539 -540 570 0
-539 -540 -570 0
541 542 -571 0
-541 542 571 0
541 -542 571 0
-541 -542 -571 0
543 544 -572 0
-543 544 572 0
543 -544 572 0
-543 -544 -572 0
545 546 -573 0
-545 546 573 0
545 -546 573 0
-545 -546 -573 0
547 548 -574 0
-547 548 574 0
547 -548 574 0
-547 -548 -574 0
549 550 -575 0
-549 550 575 0
549 -550 575 0
-549 -550 -575 0
551 552 -576 0
-551 552 576 0
551 -552 576 0
-551 -552 -576 0
553 554 -577 0
-553 554 577 0
553 -554 577 0
-553 -554 -577 0
555 556 -578 0
-555 556 578 0
555 -556 578 0
-555 -556 -578 0
557 558 -579 0
-557 558 579 0
557 -558 579 0
-557 -558 -579 0
559 560 -580 0
-559 560 580 0
559 -560 580 0
-559 -560 -580 0
561 562 -581 0
-561 562 581 0
561 -562 581 0
-561 -562 -581 0
563 526 -582 0
-563 526 582 0
563 -526 582 0
-563 -526 -582 0
564 565 -583 0
-564 565 583 0
564 -565 583 0
-564 -565 -583 0
566 567 -584 0
-566 567 584 0
566 -567 584 0
-566 -567 -584 0
568 569 -585 0
-568 569 585 0
568 -569 585 0
-568 -569 -585 0
570 571 -586 0
-570 571 586 0
570 -571 586 0
-570 -571 -586 0
572 573 -587 0
-572 573 587 0
572 -573 587 0
-572 -573 -587 0
574 575 -588 0
-574 575 588 0
574 -575 588 0
-574 -575 -588 0
576 577 -589 0
-576 577 589 0
576 -577 589 0
-576 -577 -589 0
578 579 -590 0
-578 579 590 0
578 -579 590 0
-578 -579 -590 0
580 581 -591 0
-580 581 591 0
580 -581 591 0
-580 -581 -591 0
583 584 -592 0
-583 584 592 0
583 -584 592 0
-583 -584 -592 0
585 586 -593 0
-585 586 593 0
585 -586 593 0
-585 -586 -593 0
587 588 -594 0
-587 588 594 0
587 -588 594 0
-587 -588 -594 0
589 590 -595 0
-589 590 595 0
589 -590 595 0
-589 -590 -595 0
591 582 -596 0
-591 582 596 0
591 -582 596 0
-591 -582 -596 0
592 593 -597 0
-592 593 597 0
592 -593 597 0
-592 -593 -597 0
594 595 -598 0
-594 595 598 0
594 -595 598 0
-594 -595 -598 0
597 598 -599 0
-597 598 599 0
597 -598 599 0
-597 -598 -599 0
599 596 -300 0
-599 596 300 0
599 -596 300 0
-599 -596 -300 0
